c Reduced graph for p29 generated by Cyril Grelier
p edge 53 254
e 1 2
e 1 3
e 1 4
e 1 5
e 1 6
e 1 7
e 1 8
e 1 9
e 1 10
e 1 11
e 1 14
e 1 20
e 1 21
e 1 29
e 1 50
e 2 3
e 2 4
e 2 5
e 2 6
e 2 7
e 2 8
e 2 9
e 2 11
e 2 12
e 2 15
e 2 16
e 2 23
e 2 47
e 3 4
e 3 5
e 3 6
e 3 7
e 3 8
e 3 9
e 3 11
e 3 13
e 3 25
e 3 26
e 3 27
e 3 38
e 4 5
e 4 6
e 4 7
e 4 8
e 4 9
e 4 11
e 4 22
e 4 31
e 4 32
e 4 44
e 4 53
e 5 6
e 5 7
e 5 8
e 5 9
e 5 11
e 5 17
e 5 35
e 5 48
e 5 51
e 6 7
e 6 8
e 6 9
e 6 11
e 6 18
e 6 24
e 6 36
e 6 37
e 7 8
e 7 9
e 7 11
e 7 19
e 7 28
e 7 39
e 7 52
e 8 9
e 8 11
e 8 33
e 8 34
e 8 45
e 8 46
e 9 11
e 9 40
e 9 41
e 9 49
e 10 12
e 10 13
e 10 14
e 10 17
e 10 18
e 10 19
e 10 20
e 10 21
e 10 29
e 10 30
e 10 50
e 11 30
e 11 42
e 11 43
e 12 13
e 12 15
e 12 16
e 12 17
e 12 18
e 12 19
e 12 23
e 12 30
e 12 47
e 13 17
e 13 18
e 13 19
e 13 25
e 13 26
e 13 27
e 13 30
e 13 38
e 14 15
e 14 20
e 14 21
e 14 24
e 14 29
e 14 33
e 14 40
e 14 42
e 14 50
e 15 16
e 15 23
e 15 24
e 15 33
e 15 40
e 15 42
e 15 47
e 16 22
e 16 23
e 16 28
e 16 34
e 16 41
e 16 43
e 16 47
e 17 18
e 17 19
e 17 30
e 17 35
e 17 48
e 17 51
e 18 19
e 18 24
e 18 30
e 18 36
e 18 37
e 19 28
e 19 30
e 19 39
e 19 52
e 20 21
e 20 25
e 20 29
e 20 31
e 20 36
e 20 45
e 20 50
e 21 26
e 21 29
e 21 37
e 21 39
e 21 46
e 21 50
e 22 28
e 22 31
e 22 32
e 22 34
e 22 41
e 22 43
e 22 44
e 22 53
e 23 27
e 23 32
e 23 35
e 23 47
e 23 49
e 24 33
e 24 36
e 24 37
e 24 40
e 24 42
e 25 26
e 25 27
e 25 31
e 25 36
e 25 38
e 25 45
e 26 27
e 26 37
e 26 38
e 26 39
e 26 46
e 27 32
e 27 35
e 27 38
e 27 49
e 28 34
e 28 39
e 28 41
e 28 43
e 28 52
e 29 38
e 29 44
e 29 48
e 29 50
e 30 42
e 30 43
e 31 32
e 31 36
e 31 44
e 31 45
e 31 53
e 32 35
e 32 44
e 32 49
e 32 53
e 33 34
e 33 40
e 33 42
e 33 45
e 33 46
e 34 41
e 34 43
e 34 45
e 34 46
e 35 48
e 35 49
e 35 51
e 36 37
e 36 45
e 37 39
e 37 46
e 38 44
e 38 48
e 39 46
e 39 52
e 40 41
e 40 42
e 40 49
e 41 43
e 41 49
e 42 43
e 44 48
e 44 53
e 45 46
e 47 51
e 47 52
e 48 51
e 50 53
e 51 52
